language Essence 1.3

letting can_fly be
        relation((1, 1), (1, 2), (1, 3), (1, 5), (1, 9), (1, 10), (1, 11), (1, 15), (1, 18), (1, 24), (1, 26), (1, 28),
                 (1, 29), (1, 31), (1, 32), (1, 33), (2, 1), (2, 5), (2, 6), (2, 8), (2, 9), (2, 11), (2, 12), (2, 14),
                 (2, 16), (2, 19), (2, 21), (2, 22), (2, 23), (2, 24), (2, 30), (2, 32), (2, 33), (3, 1), (3, 3),
                 (3, 4), (3, 5), (3, 7), (3, 9), (3, 11), (3, 15), (3, 17), (3, 19), (3, 21), (3, 22), (3, 25), (3, 26),
                 (3, 27), (3, 29), (3, 30), (4, 2), (4, 3), (4, 4), (4, 5), (4, 9), (4, 10), (4, 13), (4, 15), (4, 20),
                 (4, 22), (4, 24), (4, 25), (4, 27), (4, 29), (4, 30), (5, 1), (5, 2), (5, 5), (5, 8), (5, 10), (5, 11),
                 (5, 13), (5, 14), (5, 15), (5, 16), (5, 17), (5, 19), (5, 21), (5, 23), (5, 25), (5, 26), (5, 27),
                 (5, 28), (5, 31), (5, 32), (5, 33), (6, 1), (6, 3), (6, 7), (6, 8), (6, 10), (6, 16), (6, 17), (6, 19),
                 (6, 20), (6, 21), (6, 23), (6, 25), (6, 28), (6, 29), (6, 30), (6, 32), (6, 33), (7, 3), (7, 4),
                 (7, 6), (7, 7), (7, 8), (7, 9), (7, 11), (7, 14), (7, 16), (7, 19), (7, 22), (7, 25), (7, 26), (7, 27),
                 (7, 28), (7, 29), (7, 30), (7, 32), (8, 2), (8, 3), (8, 4), (8, 5), (8, 6), (8, 7), (8, 9), (8, 10),
                 (8, 18), (8, 20), (8, 22), (8, 25), (8, 27), (8, 29), (8, 30), (8, 31), (8, 33), (9, 2), (9, 3),
                 (9, 4), (9, 6), (9, 7), (9, 10), (9, 11), (9, 12), (9, 14), (9, 15), (9, 16), (9, 17), (9, 19),
                 (9, 21), (9, 24), (9, 27), (9, 28), (9, 29), (9, 30), (9, 31), (10, 1), (10, 2), (10, 4), (10, 7),
                 (10, 9), (10, 11), (10, 12), (10, 16), (10, 23), (10, 24), (10, 26), (10, 27), (10, 30), (10, 32),
                 (11, 2), (11, 3), (11, 5), (11, 8), (11, 12), (11, 16), (11, 17), (11, 18), (11, 20), (11, 21),
                 (11, 24), (11, 25), (11, 29), (11, 32), (11, 33), (12, 1), (12, 3), (12, 7), (12, 8), (12, 9),
                 (12, 10), (12, 11), (12, 12), (12, 15), (12, 16), (12, 17), (12, 18), (12, 19), (12, 22), (12, 23),
                 (12, 25), (12, 27), (12, 28))
$ Visualisation for can_fly
$  1  1
$  1  2
$  1  3
$  1  5
$  1  9
$  1 10
$  1 11
$  1 15
$  1 18
$  1 24
$  1 26
$  1 28
$  1 29
$  1 31
$  1 32
$  1 33
$  2  1
$  2  5
$  2  6
$  2  8
$  2  9
$  2 11
$  2 12
$  2 14
$  2 16
$  2 19
$  2 21
$  2 22
$  2 23
$  2 24
$  2 30
$  2 32
$  2 33
$  3  1
$  3  3
$  3  4
$  3  5
$  3  7
$  3  9
$  3 11
$  3 15
$  3 17
$  3 19
$  3 21
$  3 22
$  3 25
$  3 26
$  3 27
$  3 29
$  3 30
$  4  2
$  4  3
$  4  4
$  4  5
$  4  9
$  4 10
$  4 13
$  4 15
$  4 20
$  4 22
$  4 24
$  4 25
$  4 27
$  4 29
$  4 30
$  5  1
$  5  2
$  5  5
$  5  8
$  5 10
$  5 11
$  5 13
$  5 14
$  5 15
$  5 16
$  5 17
$  5 19
$  5 21
$  5 23
$  5 25
$  5 26
$  5 27
$  5 28
$  5 31
$  5 32
$  5 33
$  6  1
$  6  3
$  6  7
$  6  8
$  6 10
$  6 16
$  6 17
$  6 19
$  6 20
$  6 21
$  6 23
$  6 25
$  6 28
$  6 29
$  6 30
$  6 32
$  6 33
$  7  3
$  7  4
$  7  6
$  7  7
$  7  8
$  7  9
$  7 11
$  7 14
$  7 16
$  7 19
$  7 22
$  7 25
$  7 26
$  7 27
$  7 28
$  7 29
$  7 30
$  7 32
$  8  2
$  8  3
$  8  4
$  8  5
$  8  6
$  8  7
$  8  9
$  8 10
$  8 18
$  8 20
$  8 22
$  8 25
$  8 27
$  8 29
$  8 30
$  8 31
$  8 33
$  9  2
$  9  3
$  9  4
$  9  6
$  9  7
$  9 10
$  9 11
$  9 12
$  9 14
$  9 15
$  9 16
$  9 17
$  9 19
$  9 21
$  9 24
$  9 27
$  9 28
$  9 29
$  9 30
$  9 31
$ 10  1
$ 10  2
$ 10  4
$ 10  7
$ 10  9
$ 10 11
$ 10 12
$ 10 16
$ 10 23
$ 10 24
$ 10 26
$ 10 27
$ 10 30
$ 10 32
$ 11  2
$ 11  3
$ 11  5
$ 11  8
$ 11 12
$ 11 16
$ 11 17
$ 11 18
$ 11 20
$ 11 21
$ 11 24
$ 11 25
$ 11 29
$ 11 32
$ 11 33
$ 12  1
$ 12  3
$ 12  7
$ 12  8
$ 12  9
$ 12 10
$ 12 11
$ 12 12
$ 12 15
$ 12 16
$ 12 17
$ 12 18
$ 12 19
$ 12 22
$ 12 23
$ 12 25
$ 12 27
$ 12 28

letting carry_in be
        function(1 --> 22, 2 --> 21, 3 --> 7, 4 --> 5, 5 --> 23, 6 --> 12, 7 --> 15, 8 --> 3, 9 --> 20, 10 --> 18,
                 11 --> 1, 12 --> 4)
letting maint be {1, 2, 4, 5, 6, 7, 8, 10, 12, 13, 14, 16, 20, 21, 22, 23, 26, 27, 28, 29, 32}
letting maint_freq be 17
letting n_flights be 33
letting n_planes be 12
letting network be
        relation((1, 1), (1, 2), (1, 5), (1, 6), (1, 8), (1, 9), (1, 10), (1, 12), (1, 15), (1, 16), (1, 17), (1, 19),
                 (1, 20), (1, 24), (1, 25), (1, 26), (1, 27), (1, 29), (1, 30), (1, 32), (1, 33), (2, 2), (2, 3),
                 (2, 6), (2, 8), (2, 9), (2, 10), (2, 11), (2, 14), (2, 17), (2, 20), (2, 22), (2, 23), (2, 24),
                 (2, 26), (2, 27), (2, 28), (2, 29), (2, 30), (2, 32), (3, 1), (3, 3), (3, 5), (3, 8), (3, 10), (3, 11),
                 (3, 14), (3, 17), (3, 18), (3, 20), (3, 21), (3, 22), (3, 23), (3, 25), (3, 26), (3, 27), (3, 29),
                 (3, 32), (3, 33), (4, 2), (4, 3), (4, 8), (4, 10), (4, 12), (4, 13), (4, 14), (4, 15), (4, 16),
                 (4, 17), (4, 18), (4, 19), (4, 20), (4, 21), (4, 22), (4, 23), (4, 27), (4, 30), (4, 32), (5, 3),
                 (5, 4), (5, 5), (5, 7), (5, 8), (5, 9), (5, 15), (5, 17), (5, 19), (5, 20), (5, 22), (5, 24), (5, 28),
                 (5, 31), (6, 4), (6, 8), (6, 12), (6, 13), (6, 17), (6, 19), (6, 21), (6, 23), (6, 25), (6, 27),
                 (6, 28), (6, 29), (7, 3), (7, 5), (7, 7), (7, 8), (7, 12), (7, 13), (7, 18), (7, 21), (7, 22), (7, 23),
                 (7, 24), (7, 25), (7, 28), (7, 30), (7, 32), (7, 33), (8, 2), (8, 3), (8, 4), (8, 5), (8, 10), (8, 11),
                 (8, 12), (8, 16), (8, 17), (8, 20), (8, 25), (8, 29), (8, 31), (8, 32), (9, 2), (9, 3), (9, 4), (9, 5),
                 (9, 7), (9, 8), (9, 9), (9, 11), (9, 17), (9, 18), (9, 20), (9, 23), (9, 24), (9, 27), (9, 28),
                 (9, 32), (9, 33), (10, 2), (10, 3), (10, 5), (10, 8), (10, 11), (10, 14), (10, 15), (10, 17), (10, 18),
                 (10, 19), (10, 20), (10, 21), (10, 22), (10, 24), (10, 25), (10, 26), (10, 28), (10, 30), (10, 31),
                 (11, 1), (11, 2), (11, 4), (11, 5), (11, 6), (11, 7), (11, 12), (11, 13), (11, 14), (11, 15), (11, 17),
                 (11, 19), (11, 20), (11, 21), (11, 22), (11, 24), (11, 27), (11, 29), (11, 30), (12, 2), (12, 3),
                 (12, 6), (12, 7), (12, 8), (12, 11), (12, 15), (12, 17), (12, 18), (12, 19), (12, 21), (12, 23),
                 (12, 24), (12, 26), (12, 30), (12, 31), (12, 32), (12, 33), (13, 2), (13, 6), (13, 10), (13, 11),
                 (13, 17), (13, 18), (13, 19), (13, 22), (13, 25), (13, 28), (13, 29), (13, 30), (13, 31), (13, 32),
                 (13, 33), (14, 3), (14, 4), (14, 7), (14, 8), (14, 9), (14, 11), (14, 13), (14, 15), (14, 16),
                 (14, 18), (14, 20), (14, 24), (14, 25), (14, 26), (14, 27), (14, 28), (14, 30), (15, 2), (15, 3),
                 (15, 4), (15, 7), (15, 9), (15, 10), (15, 11), (15, 13), (15, 14), (15, 16), (15, 17), (15, 19),
                 (15, 22), (15, 26), (15, 28), (15, 31), (15, 33), (16, 1), (16, 2), (16, 3), (16, 5), (16, 6), (16, 8),
                 (16, 9), (16, 11), (16, 13), (16, 14), (16, 15), (16, 16), (16, 17), (16, 18), (16, 19), (16, 23),
                 (16, 25), (16, 27), (16, 31), (17, 2), (17, 4), (17, 5), (17, 6), (17, 7), (17, 9), (17, 10), (17, 11),
                 (17, 12), (17, 15), (17, 16), (17, 18), (17, 19), (17, 21), (17, 26), (17, 27), (17, 28), (17, 30),
                 (18, 1), (18, 4), (18, 9), (18, 11), (18, 12), (18, 13), (18, 14), (18, 18), (18, 21), (18, 22),
                 (18, 23), (18, 24), (18, 25), (18, 26), (18, 30), (19, 2), (19, 3), (19, 4), (19, 7), (19, 10),
                 (19, 11), (19, 12), (19, 14), (19, 18), (19, 20), (19, 28), (19, 30), (19, 31), (19, 32), (19, 33),
                 (20, 1), (20, 2), (20, 3), (20, 6), (20, 8), (20, 11), (20, 12), (20, 13), (20, 14), (20, 15),
                 (20, 16), (20, 17), (20, 19), (20, 20), (20, 22), (20, 23), (20, 25), (20, 26), (20, 27), (20, 30),
                 (20, 31), (20, 33), (21, 7), (21, 8), (21, 10), (21, 11), (21, 13), (21, 14), (21, 23), (21, 24),
                 (21, 26), (21, 27), (21, 28), (21, 30), (21, 32), (22, 1), (22, 5), (22, 7), (22, 8), (22, 10),
                 (22, 15), (22, 17), (22, 19), (22, 21), (22, 26), (22, 28), (22, 30), (22, 31), (23, 1), (23, 4),
                 (23, 6), (23, 7), (23, 8), (23, 9), (23, 10), (23, 11), (23, 12), (23, 14), (23, 15), (23, 16),
                 (23, 17), (23, 19), (23, 21), (23, 25), (23, 27), (23, 28), (23, 29), (23, 31), (23, 32), (23, 33),
                 (24, 1), (24, 2), (24, 3), (24, 4), (24, 5), (24, 6), (24, 8), (24, 11), (24, 13), (24, 14), (24, 15),
                 (24, 16), (24, 17), (24, 18), (24, 21), (24, 23), (24, 24), (24, 28), (24, 29), (24, 30), (25, 4),
                 (25, 5), (25, 6), (25, 7), (25, 8), (25, 9), (25, 12), (25, 13), (25, 16), (25, 17), (25, 20),
                 (25, 21), (25, 22), (25, 23), (25, 25), (25, 26), (25, 27), (25, 31), (25, 32), (25, 33), (26, 1),
                 (26, 2), (26, 4), (26, 5), (26, 6), (26, 8), (26, 10), (26, 11), (26, 15), (26, 17), (26, 18),
                 (26, 19), (26, 20), (26, 23), (26, 28), (26, 29), (26, 30), (27, 2), (27, 6), (27, 9), (27, 11),
                 (27, 14), (27, 15), (27, 16), (27, 18), (27, 19), (27, 21), (27, 23), (27, 24), (27, 25), (27, 29),
                 (27, 32), (27, 33), (28, 1), (28, 2), (28, 3), (28, 4), (28, 5), (28, 9), (28, 10), (28, 11), (28, 13),
                 (28, 14), (28, 15), (28, 17), (28, 18), (28, 19), (28, 21), (28, 22), (28, 23), (28, 27), (28, 28),
                 (28, 31), (29, 1), (29, 7), (29, 8), (29, 12), (29, 15), (29, 17), (29, 21), (29, 22), (29, 23),
                 (29, 26), (29, 28), (29, 31), (30, 3), (30, 6), (30, 7), (30, 8), (30, 14), (30, 18), (30, 19),
                 (30, 22), (30, 24), (30, 25), (30, 26), (30, 29), (30, 30), (30, 32), (31, 1), (31, 3), (31, 5),
                 (31, 8), (31, 9), (31, 10), (31, 11), (31, 12), (31, 15), (31, 16), (31, 20), (31, 23), (31, 25),
                 (31, 27), (31, 29), (32, 1), (32, 2), (32, 3), (32, 5), (32, 10), (32, 12), (32, 13), (32, 14),
                 (32, 15), (32, 17), (32, 19), (32, 20), (32, 23), (32, 24), (32, 27), (32, 32), (32, 33), (33, 5),
                 (33, 8), (33, 9), (33, 11), (33, 12), (33, 14), (33, 15), (33, 16), (33, 17), (33, 20), (33, 21),
                 (33, 23), (33, 24), (33, 25), (33, 28), (33, 29), (33, 31), (33, 33))
$ Visualisation for network
$  1  1
$  1  2
$  1  5
$  1  6
$  1  8
$  1  9
$  1 10
$  1 12
$  1 15
$  1 16
$  1 17
$  1 19
$  1 20
$  1 24
$  1 25
$  1 26
$  1 27
$  1 29
$  1 30
$  1 32
$  1 33
$  2  2
$  2  3
$  2  6
$  2  8
$  2  9
$  2 10
$  2 11
$  2 14
$  2 17
$  2 20
$  2 22
$  2 23
$  2 24
$  2 26
$  2 27
$  2 28
$  2 29
$  2 30
$  2 32
$  3  1
$  3  3
$  3  5
$  3  8
$  3 10
$  3 11
$  3 14
$  3 17
$  3 18
$  3 20
$  3 21
$  3 22
$  3 23
$  3 25
$  3 26
$  3 27
$  3 29
$  3 32
$  3 33
$  4  2
$  4  3
$  4  8
$  4 10
$  4 12
$  4 13
$  4 14
$  4 15
$  4 16
$  4 17
$  4 18
$  4 19
$  4 20
$  4 21
$  4 22
$  4 23
$  4 27
$  4 30
$  4 32
$  5  3
$  5  4
$  5  5
$  5  7
$  5  8
$  5  9
$  5 15
$  5 17
$  5 19
$  5 20
$  5 22
$  5 24
$  5 28
$  5 31
$  6  4
$  6  8
$  6 12
$  6 13
$  6 17
$  6 19
$  6 21
$  6 23
$  6 25
$  6 27
$  6 28
$  6 29
$  7  3
$  7  5
$  7  7
$  7  8
$  7 12
$  7 13
$  7 18
$  7 21
$  7 22
$  7 23
$  7 24
$  7 25
$  7 28
$  7 30
$  7 32
$  7 33
$  8  2
$  8  3
$  8  4
$  8  5
$  8 10
$  8 11
$  8 12
$  8 16
$  8 17
$  8 20
$  8 25
$  8 29
$  8 31
$  8 32
$  9  2
$  9  3
$  9  4
$  9  5
$  9  7
$  9  8
$  9  9
$  9 11
$  9 17
$  9 18
$  9 20
$  9 23
$  9 24
$  9 27
$  9 28
$  9 32
$  9 33
$ 10  2
$ 10  3
$ 10  5
$ 10  8
$ 10 11
$ 10 14
$ 10 15
$ 10 17
$ 10 18
$ 10 19
$ 10 20
$ 10 21
$ 10 22
$ 10 24
$ 10 25
$ 10 26
$ 10 28
$ 10 30
$ 10 31
$ 11  1
$ 11  2
$ 11  4
$ 11  5
$ 11  6
$ 11  7
$ 11 12
$ 11 13
$ 11 14
$ 11 15
$ 11 17
$ 11 19
$ 11 20
$ 11 21
$ 11 22
$ 11 24
$ 11 27
$ 11 29
$ 11 30
$ 12  2
$ 12  3
$ 12  6
$ 12  7
$ 12  8
$ 12 11
$ 12 15
$ 12 17
$ 12 18
$ 12 19
$ 12 21
$ 12 23
$ 12 24
$ 12 26
$ 12 30
$ 12 31
$ 12 32
$ 12 33
$ 13  2
$ 13  6
$ 13 10
$ 13 11
$ 13 17
$ 13 18
$ 13 19
$ 13 22
$ 13 25
$ 13 28
$ 13 29
$ 13 30
$ 13 31
$ 13 32
$ 13 33
$ 14  3
$ 14  4
$ 14  7
$ 14  8
$ 14  9
$ 14 11
$ 14 13
$ 14 15
$ 14 16
$ 14 18
$ 14 20
$ 14 24
$ 14 25
$ 14 26
$ 14 27
$ 14 28
$ 14 30
$ 15  2
$ 15  3
$ 15  4
$ 15  7
$ 15  9
$ 15 10
$ 15 11
$ 15 13
$ 15 14
$ 15 16
$ 15 17
$ 15 19
$ 15 22
$ 15 26
$ 15 28
$ 15 31
$ 15 33
$ 16  1
$ 16  2
$ 16  3
$ 16  5
$ 16  6
$ 16  8
$ 16  9
$ 16 11
$ 16 13
$ 16 14
$ 16 15
$ 16 16
$ 16 17
$ 16 18
$ 16 19
$ 16 23
$ 16 25
$ 16 27
$ 16 31
$ 17  2
$ 17  4
$ 17  5
$ 17  6
$ 17  7
$ 17  9
$ 17 10
$ 17 11
$ 17 12
$ 17 15
$ 17 16
$ 17 18
$ 17 19
$ 17 21
$ 17 26
$ 17 27
$ 17 28
$ 17 30
$ 18  1
$ 18  4
$ 18  9
$ 18 11
$ 18 12
$ 18 13
$ 18 14
$ 18 18
$ 18 21
$ 18 22
$ 18 23
$ 18 24
$ 18 25
$ 18 26
$ 18 30
$ 19  2
$ 19  3
$ 19  4
$ 19  7
$ 19 10
$ 19 11
$ 19 12
$ 19 14
$ 19 18
$ 19 20
$ 19 28
$ 19 30
$ 19 31
$ 19 32
$ 19 33
$ 20  1
$ 20  2
$ 20  3
$ 20  6
$ 20  8
$ 20 11
$ 20 12
$ 20 13
$ 20 14
$ 20 15
$ 20 16
$ 20 17
$ 20 19
$ 20 20
$ 20 22
$ 20 23
$ 20 25
$ 20 26
$ 20 27
$ 20 30
$ 20 31
$ 20 33
$ 21  7
$ 21  8
$ 21 10
$ 21 11
$ 21 13
$ 21 14
$ 21 23
$ 21 24
$ 21 26
$ 21 27
$ 21 28
$ 21 30
$ 21 32
$ 22  1
$ 22  5
$ 22  7
$ 22  8
$ 22 10
$ 22 15
$ 22 17
$ 22 19
$ 22 21
$ 22 26
$ 22 28
$ 22 30
$ 22 31
$ 23  1
$ 23  4
$ 23  6
$ 23  7
$ 23  8
$ 23  9
$ 23 10
$ 23 11
$ 23 12
$ 23 14
$ 23 15
$ 23 16
$ 23 17
$ 23 19
$ 23 21
$ 23 25
$ 23 27
$ 23 28
$ 23 29
$ 23 31
$ 23 32
$ 23 33
$ 24  1
$ 24  2
$ 24  3
$ 24  4
$ 24  5
$ 24  6
$ 24  8
$ 24 11
$ 24 13
$ 24 14
$ 24 15
$ 24 16
$ 24 17
$ 24 18
$ 24 21
$ 24 23
$ 24 24
$ 24 28
$ 24 29
$ 24 30
$ 25  4
$ 25  5
$ 25  6
$ 25  7
$ 25  8
$ 25  9
$ 25 12
$ 25 13
$ 25 16
$ 25 17
$ 25 20
$ 25 21
$ 25 22
$ 25 23
$ 25 25
$ 25 26
$ 25 27
$ 25 31
$ 25 32
$ 25 33
$ 26  1
$ 26  2
$ 26  4
$ 26  5
$ 26  6
$ 26  8
$ 26 10
$ 26 11
$ 26 15
$ 26 17
$ 26 18
$ 26 19
$ 26 20
$ 26 23
$ 26 28
$ 26 29
$ 26 30
$ 27  2
$ 27  6
$ 27  9
$ 27 11
$ 27 14
$ 27 15
$ 27 16
$ 27 18
$ 27 19
$ 27 21
$ 27 23
$ 27 24
$ 27 25
$ 27 29
$ 27 32
$ 27 33
$ 28  1
$ 28  2
$ 28  3
$ 28  4
$ 28  5
$ 28  9
$ 28 10
$ 28 11
$ 28 13
$ 28 14
$ 28 15
$ 28 17
$ 28 18
$ 28 19
$ 28 21
$ 28 22
$ 28 23
$ 28 27
$ 28 28
$ 28 31
$ 29  1
$ 29  7
$ 29  8
$ 29 12
$ 29 15
$ 29 17
$ 29 21
$ 29 22
$ 29 23
$ 29 26
$ 29 28
$ 29 31
$ 30  3
$ 30  6
$ 30  7
$ 30  8
$ 30 14
$ 30 18
$ 30 19
$ 30 22
$ 30 24
$ 30 25
$ 30 26
$ 30 29
$ 30 30
$ 30 32
$ 31  1
$ 31  3
$ 31  5
$ 31  8
$ 31  9
$ 31 10
$ 31 11
$ 31 12
$ 31 15
$ 31 16
$ 31 20
$ 31 23
$ 31 25
$ 31 27
$ 31 29
$ 32  1
$ 32  2
$ 32  3
$ 32  5
$ 32 10
$ 32 12
$ 32 13
$ 32 14
$ 32 15
$ 32 17
$ 32 19
$ 32 20
$ 32 23
$ 32 24
$ 32 27
$ 32 32
$ 32 33
$ 33  5
$ 33  8
$ 33  9
$ 33 11
$ 33 12
$ 33 14
$ 33 15
$ 33 16
$ 33 17
$ 33 20
$ 33 21
$ 33 23
$ 33 24
$ 33 25
$ 33 28
$ 33 29
$ 33 31
$ 33 33

